c CNF file corresponding to a (partial) station packing problem.
p cnf 4861 229
1 2 3 4 5 6 7 8 9 10 11 12 13 14 0
-1 -2 0
-1 -3 0
-1 -4 0
-1 -5 0
-1 -6 0
-1 -7 0
-1 -8 0
-1 -9 0
-1 -10 0
-1 -11 0
-1 -12 0
-1 -13 0
-1 -14 0
-2 -3 0
-2 -4 0
-2 -5 0
-2 -6 0
-2 -7 0
-2 -8 0
-2 -9 0
-2 -10 0
-2 -11 0
-2 -12 0
-2 -13 0
-2 -14 0
-3 -4 0
-3 -5 0
-3 -6 0
-3 -7 0
-3 -8 0
-3 -9 0
-3 -10 0
-3 -11 0
-3 -12 0
-3 -13 0
-3 -14 0
-4 -5 0
-4 -6 0
-4 -7 0
-4 -8 0
-4 -9 0
-4 -10 0
-4 -11 0
-4 -12 0
-4 -13 0
-4 -14 0
-5 -6 0
-5 -7 0
-5 -8 0
-5 -9 0
-5 -10 0
-5 -11 0
-5 -12 0
-5 -13 0
-5 -14 0
-6 -7 0
-6 -8 0
-6 -9 0
-6 -10 0
-6 -11 0
-6 -12 0
-6 -13 0
-6 -14 0
-7 -8 0
-7 -9 0
-7 -10 0
-7 -11 0
-7 -12 0
-7 -13 0
-7 -14 0
-8 -9 0
-8 -10 0
-8 -11 0
-8 -12 0
-8 -13 0
-8 -14 0
-9 -10 0
-9 -11 0
-9 -12 0
-9 -13 0
-9 -14 0
-10 -11 0
-10 -12 0
-10 -13 0
-10 -14 0
-11 -12 0
-11 -13 0
-11 -14 0
-12 -13 0
-12 -14 0
-13 -14 0
4845 4846 4847 4848 4849 4850 4851 4852 4853 4854 4855 4856 4857 4858 4859 4860 4861 0
-4845 -4846 0
-4845 -4847 0
-4845 -4848 0
-4845 -4849 0
-4845 -4850 0
-4845 -4851 0
-4845 -4852 0
-4845 -4853 0
-4845 -4854 0
-4845 -4855 0
-4845 -4856 0
-4845 -4857 0
-4845 -4858 0
-4845 -4859 0
-4845 -4860 0
-4845 -4861 0
-4846 -4847 0
-4846 -4848 0
-4846 -4849 0
-4846 -4850 0
-4846 -4851 0
-4846 -4852 0
-4846 -4853 0
-4846 -4854 0
-4846 -4855 0
-4846 -4856 0
-4846 -4857 0
-4846 -4858 0
-4846 -4859 0
-4846 -4860 0
-4846 -4861 0
-4847 -4848 0
-4847 -4849 0
-4847 -4850 0
-4847 -4851 0
-4847 -4852 0
-4847 -4853 0
-4847 -4854 0
-4847 -4855 0
-4847 -4856 0
-4847 -4857 0
-4847 -4858 0
-4847 -4859 0
-4847 -4860 0
-4847 -4861 0
-4848 -4849 0
-4848 -4850 0
-4848 -4851 0
-4848 -4852 0
-4848 -4853 0
-4848 -4854 0
-4848 -4855 0
-4848 -4856 0
-4848 -4857 0
-4848 -4858 0
-4848 -4859 0
-4848 -4860 0
-4848 -4861 0
-4849 -4850 0
-4849 -4851 0
-4849 -4852 0
-4849 -4853 0
-4849 -4854 0
-4849 -4855 0
-4849 -4856 0
-4849 -4857 0
-4849 -4858 0
-4849 -4859 0
-4849 -4860 0
-4849 -4861 0
-4850 -4851 0
-4850 -4852 0
-4850 -4853 0
-4850 -4854 0
-4850 -4855 0
-4850 -4856 0
-4850 -4857 0
-4850 -4858 0
-4850 -4859 0
-4850 -4860 0
-4850 -4861 0
-4851 -4852 0
-4851 -4853 0
-4851 -4854 0
-4851 -4855 0
-4851 -4856 0
-4851 -4857 0
-4851 -4858 0
-4851 -4859 0
-4851 -4860 0
-4851 -4861 0
-4852 -4853 0
-4852 -4854 0
-4852 -4855 0
-4852 -4856 0
-4852 -4857 0
-4852 -4858 0
-4852 -4859 0
-4852 -4860 0
-4852 -4861 0
-4853 -4854 0
-4853 -4855 0
-4853 -4856 0
-4853 -4857 0
-4853 -4858 0
-4853 -4859 0
-4853 -4860 0
-4853 -4861 0
-4854 -4855 0
-4854 -4856 0
-4854 -4857 0
-4854 -4858 0
-4854 -4859 0
-4854 -4860 0
-4854 -4861 0
-4855 -4856 0
-4855 -4857 0
-4855 -4858 0
-4855 -4859 0
-4855 -4860 0
-4855 -4861 0
-4856 -4857 0
-4856 -4858 0
-4856 -4859 0
-4856 -4860 0
-4856 -4861 0
-4857 -4858 0
-4857 -4859 0
-4857 -4860 0
-4857 -4861 0
-4858 -4859 0
-4858 -4860 0
-4858 -4861 0
-4859 -4860 0
-4859 -4861 0
-4860 -4861 0
